
List of user-set options:

                                    Name   Value                used
                           compl_inf_tol = 1                     yes
                         constr_viol_tol = 1                     yes
                            dual_inf_tol = 1000                  yes
                           linear_solver = ma97                  yes
                              ma86_small = 1e-30                  no
                                  ma86_u = 0.0001                 no
                              ma97_order = best                  yes
                              ma97_small = 1e-30                 yes
                            ma97_switch1 = at_start              yes
                            ma97_switch2 = od_hd_reuse           yes
                                  ma97_u = 1e-06                 yes
                               ma97_umax = 0.5                   yes
                                max_iter = 1000                  yes
                    max_refinement_steps = 20                    yes
                    min_refinement_steps = 5                     yes
                                 mu_init = 1e-06                 yes
           mu_superlinear_decrease_power = 1.25                  yes
                   nlp_scaling_min_value = 1e-08                 yes
                        option_file_name = Preset_Case:_19_pf.opt  yes
                             output_file = ./tmp/Preset_Case:_19_pf.output  yes
                      print_user_options = yes                   yes
        required_infeasibility_reduction = 1                      no
                                     tol = 1e-08                 yes
                   warm_start_bound_frac = 1e-20                 yes
                   warm_start_bound_push = 1e-20                 yes
                   warm_start_init_point = yes                   yes
              warm_start_mult_bound_push = 1e-20                 yes
                warm_start_mult_init_max = 1e+40                 yes
             warm_start_slack_bound_frac = 1e-20                 yes
             warm_start_slack_bound_push = 1e-20                 yes

******************************************************************************
This program contains Ipopt, a library for large-scale nonlinear optimization.
 Ipopt is released as open source code under the Eclipse Public License (EPL).
         For more information visit http://projects.coin-or.org/Ipopt
******************************************************************************

This is Ipopt version 3.12.10, running with linear solver ma97.

Number of nonzeros in equality constraint Jacobian...:   123442
Number of nonzeros in inequality constraint Jacobian.:      213
Number of nonzeros in Lagrangian Hessian.............:    49069

Total number of variables............................:    31591
                     variables with only lower bounds:    12912
                variables with lower and upper bounds:    15130
                     variables with only upper bounds:        0
Total number of equality constraints.................:    31483
Total number of inequality constraints...............:       25
        inequality constraints with only lower bounds:        4
   inequality constraints with lower and upper bounds:        0
        inequality constraints with only upper bounds:       21

iter    objective    inf_pr   inf_du lg(mu)  ||d||  lg(rg) alpha_du alpha_pr  ls
   0 -1.6861102e+00 4.08e-03 1.02e+00  -6.0 0.00e+00    -  0.00e+00 0.00e+00   0
   1 -1.6855901e+00 1.22e-02 1.02e+00  -6.0 3.35e+05    -  9.75e-05 4.27e-05h  6
   2 -1.6856854e+00 1.22e-02 3.79e+01  -6.0 1.85e+03    -  1.69e-01 1.92e-03h  1
   3 -1.6954776e+00 1.36e-01 7.90e+01  -6.0 1.85e+03    -  1.20e-01 1.98e-01f  1
   4 -1.7138727e+00 8.89e-01 4.87e+02  -6.0 1.78e+03    -  4.37e-01 5.32e-01f  1
   5 -1.7206222e+00 1.04e+00 4.68e+02  -6.0 1.41e+03    -  1.00e+00 9.30e-01h  1
   6 -1.7166110e+00 9.56e-02 4.01e+01  -6.0 5.00e+02    -  1.00e+00 9.40e-01h  1
   7 -1.7160217e+00 4.95e-04 1.25e-01  -6.0 5.52e+01    -  1.00e+00 1.00e+00h  1
   8 -1.7160181e+00 1.48e-08 8.14e-07  -6.0 1.66e-01    -  1.00e+00 1.00e+00h  1
   9 -1.7161368e+00 8.17e-03 2.35e+01  -7.5 1.06e+02    -  6.67e-01 7.47e-01h  1
iter    objective    inf_pr   inf_du lg(mu)  ||d||  lg(rg) alpha_du alpha_pr  ls
  10 -1.7161369e+00 2.04e-03 1.47e+01  -7.5 2.88e+01    -  1.00e+00 8.37e-01h  1
  11 -1.7161324e+00 2.93e-05 1.04e-02  -7.5 4.98e+00    -  1.00e+00 1.00e+00h  1
  12 -1.7161323e+00 2.94e-10 3.15e-08  -7.5 9.22e-03    -  1.00e+00 1.00e+00h  1
  13 -1.7161339e+00 1.13e-05 8.76e-01  -9.0 3.51e+00    -  9.50e-01 8.54e-01h  1
  14 -1.7161341e+00 3.32e-07 5.21e-05  -9.0 5.15e-01    -  1.00e+00 1.00e+00f  1
  15 -1.7161341e+00 2.82e-10 5.12e-10  -9.0 6.67e-05    -  1.00e+00 1.00e+00h  1

Number of Iterations....: 15

                                   (scaled)                 (unscaled)
Objective...............:  -1.3407297969217018e+00   -1.7161341400597783e+00
Dual infeasibility......:   5.1163829265086544e-10    6.5489701459310781e-10
Constraint violation....:   2.8224781366270602e-10    2.8224781366270602e-10
Complementarity.........:   1.0409892561448589e-09    1.3324662478654194e-09
Overall NLP error.......:   1.0409892561448589e-09    1.3324662478654194e-09


Number of objective function evaluations             = 22
Number of objective gradient evaluations             = 16
Number of equality constraint evaluations            = 22
Number of inequality constraint evaluations          = 22
Number of equality constraint Jacobian evaluations   = 16
Number of inequality constraint Jacobian evaluations = 16
Number of Lagrangian Hessian evaluations             = 15
Total CPU secs in IPOPT (w/o function evaluations)   =     18.166
Total CPU secs in NLP function evaluations           =      0.409

EXIT: Optimal Solution Found.
